\ Model optimization_model
\ LP format - for model browsing. Use MPS format to capture full model detail.
\ Signature: 0x879dda9303baa0c5
Minimize
  + 20646.14248747526 Constant
Subject To
Bounds
 Constant = 1
End
